
# 速度の割り当て
<<<<<<< HEAD
velocity   all create 298.0 4928459
run 0  
velocity   all scale 298.0               

timestep 1.0  # fs
=======
velocity         all create 298.0 4928459

timestep 1.0

thermo_style custom step temp pe etotal press vol atoms  
>>>>>>> 470a4b6fcba75a8582aa87016a1e1942d472a80a

neigh_modify every 1 delay 0 check yes

#　制御に用いる変数(QA)
variable          step equal step #ステップ数
variable          density equal density #密度
variable          temp equal temp　#温度
variable          etotal equal etotal #総エネルギー
variable          pxx equal pxx #圧力
variable          pyy equal pyy
variable          pzz equal pzz
variable          lx equal lx　#boxの大きさ
variable          ly equal ly
variable          lz equal lz
variable          zlo equal zlo　#boxの境界
variable          zhi equal zhi
variable          xlo equal xlo
variable          xhi equal xhi
variable          ylo equal ylo
variable          yhi equal yhi
variable          pe equal pe　#ポテンシャルエネルギー

<<<<<<< HEAD
# region作成
#region top plane 0 0 100 0 0 -1 units box
#region top plane 0 0 100 0 0 -1 units lattice
#fix wall all wall/region top lj93 0.0 0.0 1.0
# Solvent(water) evapolation region setting (top 10% box region)
region evapRegion block -1 31 -1 31 89.5 99.5

# Solvent evapolation (30 atoms = 10 water molecules per 1000 steps)
#fix evp mobile evaporate 1000 30 evapRegion 49892  molecule yes

# temp of mobile 
compute myTemp mobile temp
compute_modify myTemp dynamic/dof yes
thermo_style custom step temp c_myTemp pe etotal press vol atoms  

# -- run protocols ---

#fix 1 mobile npt temp 298.0 298.0 100.0 iso 1.0 1.0 1000.0
# run 1000000  # 1ns
#unfix 1

#--- nvt initialization 298K/50ps
fix 1 mobile nvt temp 298.0 298.0 100.0
 run 50000  # 50ps
unfix 1

#---- nvt ramp temperature to 373K/50ps
fix 2 mobile nvt temp 298.0 373.0 100.0
 run 50000  # 50ps
unfix 2

#---- nvt keep 373K/50ps
fix 3 mobile nvt temp 373.0 373.0 100.0
 run 50000  # 50ps
unfix 3

#fix 1 mobile nvt temp 298.0 298.0 100.0
# run 1000000  # 1ns
#unfix 1

=======
#change_box all boundary p p f

# 削除平面作成
# ? 範囲指定
#region top plane 0 0 100 0 0 -1 units box
#region top plane 0 0 100 0 0 -1 units lattice
#fix wall all wall/region top lj93 0.0 0.0 1.0

# Solvent(water) evapolation region setting (top 10% box region)
region top block -1 31 -1 31 90 101

# Solvent evapolation (30 atoms = 10 water molecules per 1000 steps)
fix evp mobile evaporate 1000 30 top 49892  molecule yes
compute myTemp mobile temp
compute_modify myTemp dynamic/dof yes

#　? 削除
#delete_atoms region top compress yes

# -- run protocols ---

fix 1 mobile npt temp 298.0 298.0 100.0 iso 1.0 1.0 1000.0
 run 10000
unfix 1

fix 2 mobile nvt temp 298.0 298.0 100.0
 run 20000
unfix 2

>>>>>>> 470a4b6fcba75a8582aa87016a1e1942d472a80a
#rdfの計算
#compute	myRDF oxy rdf 50 cutoff 13.0
#fix		fout2 oxy ave/time 1000 10 10000 c_myRDF[*] file tmp.rdf mode vector

<<<<<<< HEAD
#fix 3 mobile nve
# run 10000
#unfix 3
=======
fix 3 mobile nve
 run 10000
unfix 3
>>>>>>> 470a4b6fcba75a8582aa87016a1e1942d472a80a

write_restart   system.restart
