SPCE {
       write("Data Atoms"){
            $atom:H1     $mol @atom:H  0.4238  0.8165  0.0000  0.5773
            $atom:H2     $mol @atom:H  0.4238 -0.8165  0.0000  0.5773
            $atom:O      $mol @atom:O -0.8476  0.0000  0.0000  0.0000
        }
        write("Data Bonds"){
            $bond:OH1      @bond:OH    $atom:H1    $atom:O
            $bond:OH2      @bond:OH    $atom:H2    $atom:O
        }
        write("Data Angles"){
            $angle:HOH     @angle:HOH    $atom:H1    $atom:O     $atom:H2
        }
        write_once("Data Masses") {
            @atom:H  1.0080
            @atom:O 15.9994
        }

        write_once("In Settings") {

        #     atom_id mass
        mass @atom:H  1.0080
        mass @atom:O 15.9994

        #           atom_i       atom_j       epsilon   sigma
        pair_coeff @atom:H      @atom:H      0.000      0.000
        pair_coeff @atom:O      @atom:O      0.1553     3.5533
        pair_coeff @atom:H      @atom:O      0.000      0.000

        #           bond_id     k_harmonic      r0
        bond_coeff @bond:OH    1000.0           1.0

        #            angle_id    k_harmonic     theta0
        angle_coeff @angle:HOH  1000.0          109.47

        group gSPCE type @atom:H @atom:O
        group hyd type @atom:H
        group oxy type @atom:O


        }

        write_once("In Init") {
            units           real
            atom_style      full
            boundary        p p p
            bond_style      harmonic
            angle_style     harmonic
            pair_style      lj/cut/coul/long 12.0 13.0
            pair_modify     mix arithmetic
            dihedral_style  harmonic
            kspace_style    pppm 1.0e-5
            kspace_modify   gewald 0.29
        }
}

wat = new SPCE[901]

Graphene {
           write("Data Atoms"){
            $atom:C      $mol @atom:C  0.0000  0.0000  0.0000  0.0000
        }
        write("Data Bonds"){
        }
        write("Data Angles"){
        }
        write_once("Data Masses") {
            @atom:C  12.0107
        }

        write_once("In Settings") {
        #     atom_id mass
        mass  @atom:C  12.0107

        # These Lennard-Jones parameters come from
        #  R. Saito, R. Matsuo, T. Kimura, G. Dresselhaus, M.S. Dresselhaus,
        #  Chem Phys Lett, 348:187 (2001)
        pair_coeff  @atom:C      @atom:C     0.068443   3.407

        # --- We must eventually specify the interactions between the atoms ---
        # --- in different molecule types (graphene-water interactions).    ---
        # (See Laurent Joly, J. Chem. Phys. 135(21):214705 (2011) for details
        pair_coeff  @atom:C      @atom:SPCE/O      0.114     3.28
        pair_coeff  @atom:C      @atom:SPCE/H      0.0       3.28


        # Define a group consisting of only carbon atoms in graphene molecules
        group gGraphene type @atom:C

        # Only the gGraphene atoms are immobile.
        group mobile subtract all gGraphene
        group solid  subtract all mobile


        # Use "neigh_modify" to turn off calculation of interactions between immobilized
        # atoms. (Note: group "gGraphene" was defined in the file "system.insettings")
        neigh_modify exclude group gGraphene gGraphene

        }


}

graphene = new Graphene[3328]

# ------------------------------------------------------------------

write_once("Data Boundary"){
   -1.0  31.0 xlo xhi
   -1.0  31.0 ylo yhi
   -1.0 101.0 zlo zhi
}

write_once("In Output"){
     thermo 100
     dump 1 all custom 100 dump.lammpstrj id mol type x y z ix iy iz
}

write_once("In Run"){

timestep 1.0  # fs

neigh_modify every 1 delay 0 check yes

#　制御に用いる変数(QA)
variable          step equal step #ステップ数
variable          density equal density #密度
variable          temp equal temp　#温度
variable          etotal equal etotal #総エネルギー
variable          pxx equal pxx #圧力
variable          pyy equal pyy
variable          pzz equal pzz
variable          lx equal lx　#boxの大きさ
variable          ly equal ly
variable          lz equal lz
variable          zlo equal zlo　#boxの境界
variable          zhi equal zhi
variable          xlo equal xlo
variable          xhi equal xhi
variable          ylo equal ylo
variable          yhi equal yhi
variable          pe equal pe　#ポテンシャルエネルギー

# region/atom group作成
#region top plane 0 0 100 0 0 -1 units box
#region top plane 0 0 100 0 0 -1 units lattice
# Solvent(water) evapolation region setting (top 10% box region)

region topFix block EDGE EDGE EDGE EDGE 99.5 100.5
region topG3L block EDGE EDGE EDGE EDGE 89.0  97.0
region btmG3L block EDGE EDGE EDGE EDGE  1.0  11.0 
region btmFix block EDGE EDGE EDGE EDGE -0.5   0.5
region evapRegion block -1 31 -1 31 89.5 99.5

group topFixAtoms region topFix
group topG3LAtoms region topG3L
group btmG3LAtoms region btmG3L
group btmFixAtoms region btmFix
 

# Solvent evapolation (30 atoms = 10 water molecules per 1000 steps)
#fix evp mobile evaporate 1000 30 evapRegion 49892  molecule yes

# temp of mobile 
compute myTemp mobile temp
compute_modify myTemp dynamic/dof yes
thermo_style custom step temp c_myTemp pe etotal press vol atoms  

# -- run protocols ---

#--- minimization for initialization

fix   freezeTop topFixAtoms setforce 0 0 0
fix   freezeBtm btmFixAtoms setforce 0 0 0
fix   spring solid spring/self  67.6425
fix   loadbalance all balance 100000 1.0 shift xy 10 1.1 weight time 0.8 out balance.output
min_style    cg
minimize     1e-6 1e-8 5000 10000
write_data   data.system_min
reset_timestep 0 

#--- equillibrium 298K/100ps

# 速度の割り当て
velocity   all create 298.0 4928459 mom yes rot yes dist gaussian
run 0
velocity   all scale 298.0
velocity   topFixAtoms set 0.0 0.0 0.0 
velocity   btmFixAtoms set 0.0 0.0 0.0

fix       1 mobile nve
fix       2 mobile temp/berendsen 298.0 298.0 100.0
fix       3 topG3LAtoms nve
fix       4 topG3LAtoms temp/berendsen 298.0 298.0 100.0
fix       5 btmG3LAtoms nve
fix       6 btmG3LAtoms temp/berendsen 298.0 298.0 100.0
fix fShakeSPCE gSPCE shake 0.0001 10 100 b 1 a 1

dump         mydump1 all custom 10000 dump_equil.lammpstrj id type x y z vx vy vz
dump_modify  mydump1 sort id

run         250000

write_data    data.system_equil
write_restart restart.equil

reset_timestep 0
undump       mydump1

#---- nvt ramping temperature to 373K/100ps

unfix 2
unfix 3
unfix 4 
unfix 5
unfix 6

fix          tempramp btmG3LAtoms nvt temp 298.0 373.0 100.0

dump     mydump2 all custom 1000 dump.lammpstrj id type x y z vx vy vz
dump_modify  mydump2 sort id
run          1000000

#rdfの計算
#compute	myRDF oxy rdf 50 cutoff 13.0
#fix		fout2 oxy ave/time 1000 10 10000 c_myRDF[*] file tmp.rdf mode vector

write_restart   system.restart
}
